p cnf 200 1110
-101 91 0
-101 -48 0
-101 26 0
-101 -73 0
-101 -74 0
-101 71 0
-101 -28 0
-101 -39 0
-101 -98 0
-101 20 0
101 -91 48 -26 73 74 -71 28 39 98 -20 0
-102 27 0
-102 62 0
-102 46 0
-102 -59 0
-102 -61 0
-102 12 0
-102 -7 0
-102 78 0
-102 -52 0
-102 -41 0
102 -27 -62 -46 59 61 -12 7 -78 52 41 0
-103 81 0
-103 13 0
-103 -11 0
-103 15 0
-103 -28 0
-103 -56 0
-103 93 0
-103 -33 0
-103 -99 0
-103 -52 0
103 -81 -13 11 -15 28 56 -93 33 99 52 0
-104 21 0
-104 27 0
-104 -16 0
-104 -10 0
-104 -18 0
-104 39 0
-104 -94 0
-104 -66 0
-104 44 0
-104 55 0
104 -21 -27 16 10 18 -39 94 66 -44 -55 0
-105 -1 0
-105 -8 0
-105 61 0
-105 -56 0
-105 57 0
-105 -10 0
-105 -33 0
-105 -4 0
-105 46 0
-105 95 0
105 1 8 -61 56 -57 10 33 4 -46 -95 0
-106 -22 0
-106 88 0
-106 -96 0
-106 -81 0
-106 68 0
-106 -46 0
-106 -53 0
-106 -52 0
-106 41 0
-106 80 0
106 22 -88 96 81 -68 46 53 52 -41 -80 0
-107 -46 0
-107 -41 0
-107 66 0
-107 -23 0
-107 -61 0
-107 43 0
-107 83 0
-107 16 0
-107 -1 0
-107 -80 0
107 46 41 -66 23 61 -43 -83 -16 1 80 0
-108 78 0
-108 9 0
-108 51 0
-108 12 0
-108 28 0
-108 96 0
-108 83 0
-108 -29 0
-108 -18 0
-108 -67 0
108 -78 -9 -51 -12 -28 -96 -83 29 18 67 0
-109 -60 0
-109 29 0
-109 98 0
-109 -50 0
-109 -19 0
-109 2 0
-109 10 0
-109 51 0
-109 -85 0
-109 -37 0
109 60 -29 -98 50 19 -2 -10 -51 85 37 0
-110 95 0
-110 37 0
-110 -43 0
-110 -69 0
-110 11 0
-110 -48 0
-110 85 0
-110 56 0
-110 25 0
-110 94 0
110 -95 -37 43 69 -11 48 -85 -56 -25 -94 0
101 102 103 104 105 106 107 108 109 110 0
-111 -51 0
-111 -41 0
-111 -55 0
-111 -19 0
-111 11 0
-111 -89 0
-111 -71 0
-111 93 0
-111 67 0
-111 85 0
111 51 41 55 19 -11 89 71 -93 -67 -85 0
-112 -70 0
-112 2 0
-112 53 0
-112 93 0
-112 -12 0
-112 -49 0
-112 -3 0
-112 6 0
-112 23 0
-112 31 0
112 70 -2 -53 -93 12 49 3 -6 -23 -31 0
-113 91 0
-113 20 0
-113 -22 0
-113 19 0
-113 -51 0
-113 48 0
-113 93 0
-113 -72 0
-113 86 0
-113 -30 0
113 -91 -20 22 -19 51 -48 -93 72 -86 30 0
-114 27 0
-114 77 0
-114 -17 0
-114 55 0
-114 1 0
-114 -48 0
-114 -95 0
-114 -60 0
-114 85 0
-114 -94 0
114 -27 -77 17 -55 -1 48 95 60 -85 94 0
-115 81 0
-115 -8 0
-115 29 0
-115 32 0
-115 -14 0
-115 45 0
-115 19 0
-115 -1 0
-115 67 0
-115 64 0
115 -81 8 -29 -32 14 -45 -19 1 -67 -64 0
-116 -43 0
-116 57 0
-116 39 0
-116 16 0
-116 -69 0
-116 -63 0
-116 -31 0
-116 14 0
-116 26 0
-116 91 0
116 43 -57 -39 -16 69 63 31 -14 -26 -91 0
-117 -67 0
-117 -24 0
-117 -82 0
-117 40 0
-117 43 0
-117 -89 0
-117 29 0
-117 86 0
-117 -62 0
-117 -6 0
117 67 24 82 -40 -43 89 -29 -86 62 6 0
-118 -93 0
-118 -41 0
-118 -30 0
-118 3 0
-118 100 0
-118 -68 0
-118 94 0
-118 22 0
-118 -32 0
-118 66 0
118 93 41 30 -3 -100 68 -94 -22 32 -66 0
-119 -66 0
-119 -34 0
-119 -69 0
-119 40 0
-119 -13 0
-119 -16 0
-119 -41 0
-119 -21 0
-119 -54 0
-119 62 0
119 66 34 69 -40 13 16 41 21 54 -62 0
-120 100 0
-120 20 0
-120 -78 0
-120 -18 0
-120 43 0
-120 -32 0
-120 87 0
-120 -99 0
-120 69 0
-120 23 0
120 -100 -20 78 18 -43 32 -87 99 -69 -23 0
111 112 113 114 115 116 117 118 119 120 0
-121 24 0
-121 -52 0
-121 27 0
-121 -34 0
-121 -61 0
-121 93 0
-121 67 0
-121 12 0
-121 -72 0
-121 -75 0
121 -24 52 -27 34 61 -93 -67 -12 72 75 0
-122 -39 0
-122 7 0
-122 -11 0
-122 -23 0
-122 22 0
-122 -24 0
-122 19 0
-122 -4 0
-122 87 0
-122 49 0
122 39 -7 11 23 -22 24 -19 4 -87 -49 0
-123 -32 0
-123 88 0
-123 5 0
-123 94 0
-123 82 0
-123 -87 0
-123 84 0
-123 98 0
-123 1 0
-123 -21 0
123 32 -88 -5 -94 -82 87 -84 -98 -1 21 0
-124 -65 0
-124 -1 0
-124 89 0
-124 60 0
-124 62 0
-124 35 0
-124 49 0
-124 3 0
-124 7 0
-124 -79 0
124 65 1 -89 -60 -62 -35 -49 -3 -7 79 0
-125 88 0
-125 87 0
-125 69 0
-125 -25 0
-125 71 0
-125 -93 0
-125 -74 0
-125 -85 0
-125 -73 0
-125 -82 0
125 -88 -87 -69 25 -71 93 74 85 73 82 0
-126 -14 0
-126 -13 0
-126 -42 0
-126 -6 0
-126 7 0
-126 -58 0
-126 -38 0
-126 1 0
-126 90 0
-126 62 0
126 14 13 42 6 -7 58 38 -1 -90 -62 0
-127 -27 0
-127 40 0
-127 52 0
-127 -3 0
-127 82 0
-127 -32 0
-127 -13 0
-127 94 0
-127 -21 0
-127 69 0
127 27 -40 -52 3 -82 32 13 -94 21 -69 0
-128 39 0
-128 -13 0
-128 96 0
-128 76 0
-128 -83 0
-128 5 0
-128 -47 0
-128 -88 0
-128 -87 0
-128 -32 0
128 -39 13 -96 -76 83 -5 47 88 87 32 0
-129 -93 0
-129 5 0
-129 -90 0
-129 95 0
-129 -60 0
-129 52 0
-129 -87 0
-129 -4 0
-129 -57 0
-129 51 0
129 93 -5 90 -95 60 -52 87 4 57 -51 0
-130 33 0
-130 38 0
-130 -48 0
-130 31 0
-130 -87 0
-130 -19 0
-130 -98 0
-130 -80 0
-130 65 0
-130 -24 0
130 -33 -38 48 -31 87 19 98 80 -65 24 0
121 122 123 124 125 126 127 128 129 130 0
-131 -88 0
-131 61 0
-131 85 0
-131 67 0
-131 97 0
-131 23 0
-131 -19 0
-131 -64 0
-131 21 0
-131 -43 0
131 88 -61 -85 -67 -97 -23 19 64 -21 43 0
-132 50 0
-132 -71 0
-132 63 0
-132 -31 0
-132 42 0
-132 86 0
-132 -56 0
-132 -78 0
-132 66 0
-132 6 0
132 -50 71 -63 31 -42 -86 56 78 -66 -6 0
-133 -85 0
-133 -43 0
-133 -14 0
-133 30 0
-133 84 0
-133 -35 0
-133 -87 0
-133 -93 0
-133 -98 0
-133 66 0
133 85 43 14 -30 -84 35 87 93 98 -66 0
-134 42 0
-134 -36 0
-134 -87 0
-134 58 0
-134 -49 0
-134 -81 0
-134 -91 0
-134 82 0
-134 -48 0
-134 29 0
134 -42 36 87 -58 49 81 91 -82 48 -29 0
-135 82 0
-135 32 0
-135 96 0
-135 46 0
-135 -21 0
-135 67 0
-135 -31 0
-135 -60 0
-135 75 0
-135 -85 0
135 -82 -32 -96 -46 21 -67 31 60 -75 85 0
-136 -86 0
-136 100 0
-136 -84 0
-136 -89 0
-136 37 0
-136 -56 0
-136 53 0
-136 -26 0
-136 38 0
-136 -51 0
136 86 -100 84 89 -37 56 -53 26 -38 51 0
-137 41 0
-137 14 0
-137 50 0
-137 -55 0
-137 72 0
-137 -87 0
-137 57 0
-137 -2 0
-137 80 0
-137 -97 0
137 -41 -14 -50 55 -72 87 -57 2 -80 97 0
-138 -54 0
-138 -15 0
-138 -67 0
-138 -93 0
-138 -88 0
-138 63 0
-138 -42 0
-138 83 0
-138 41 0
-138 100 0
138 54 15 67 93 88 -63 42 -83 -41 -100 0
-139 4 0
-139 -44 0
-139 -98 0
-139 55 0
-139 51 0
-139 -32 0
-139 21 0
-139 39 0
-139 -25 0
-139 -9 0
139 -4 44 98 -55 -51 32 -21 -39 25 9 0
-140 30 0
-140 -83 0
-140 15 0
-140 -98 0
-140 -82 0
-140 -88 0
-140 -41 0
-140 80 0
-140 14 0
-140 20 0
140 -30 83 -15 98 82 88 41 -80 -14 -20 0
131 132 133 134 135 136 137 138 139 140 0
-141 30 0
-141 95 0
-141 38 0
-141 -62 0
-141 -31 0
-141 72 0
-141 -63 0
-141 14 0
-141 13 0
-141 -50 0
141 -30 -95 -38 62 31 -72 63 -14 -13 50 0
-142 13 0
-142 -54 0
-142 -71 0
-142 76 0
-142 60 0
-142 -16 0
-142 92 0
-142 3 0
-142 38 0
-142 -53 0
142 -13 54 71 -76 -60 16 -92 -3 -38 53 0
-143 20 0
-143 18 0
-143 -31 0
-143 -86 0
-143 -35 0
-143 88 0
-143 -29 0
-143 99 0
-143 14 0
-143 59 0
143 -20 -18 31 86 35 -88 29 -99 -14 -59 0
-144 84 0
-144 -95 0
-144 -99 0
-144 27 0
-144 90 0
-144 -93 0
-144 -1 0
-144 17 0
-144 -40 0
-144 -65 0
144 -84 95 99 -27 -90 93 1 -17 40 65 0
-145 70 0
-145 68 0
-145 46 0
-145 35 0
-145 -3 0
-145 90 0
-145 -78 0
-145 -66 0
-145 -86 0
-145 63 0
145 -70 -68 -46 -35 3 -90 78 66 86 -63 0
-146 -30 0
-146 -53 0
-146 46 0
-146 -76 0
-146 -56 0
-146 17 0
-146 97 0
-146 2 0
-146 -37 0
-146 -65 0
146 30 53 -46 76 56 -17 -97 -2 37 65 0
-147 -81 0
-147 84 0
-147 99 0
-147 100 0
-147 -75 0
-147 91 0
-147 24 0
-147 18 0
-147 -67 0
-147 -49 0
147 81 -84 -99 -100 75 -91 -24 -18 67 49 0
-148 -5 0
-148 35 0
-148 69 0
-148 49 0
-148 56 0
-148 50 0
-148 -25 0
-148 -93 0
-148 -61 0
-148 6 0
148 5 -35 -69 -49 -56 -50 25 93 61 -6 0
-149 -43 0
-149 -44 0
-149 -94 0
-149 -63 0
-149 -84 0
-149 -15 0
-149 47 0
-149 -22 0
-149 -54 0
-149 -23 0
149 43 44 94 63 84 15 -47 22 54 23 0
-150 -17 0
-150 13 0
-150 99 0
-150 -85 0
-150 -94 0
-150 51 0
-150 50 0
-150 68 0
-150 -83 0
-150 -49 0
150 17 -13 -99 85 94 -51 -50 -68 83 49 0
141 142 143 144 145 146 147 148 149 150 0
-151 -7 0
-151 -54 0
-151 -34 0
-151 72 0
-151 -2 0
-151 46 0
-151 -79 0
-151 56 0
-151 -27 0
-151 33 0
151 7 54 34 -72 2 -46 79 -56 27 -33 0
-152 30 0
-152 -67 0
-152 -71 0
-152 -42 0
-152 86 0
-152 79 0
-152 6 0
-152 -2 0
-152 -7 0
-152 -31 0
152 -30 67 71 42 -86 -79 -6 2 7 31 0
-153 -84 0
-153 -77 0
-153 82 0
-153 -85 0
-153 -13 0
-153 65 0
-153 -9 0
-153 14 0
-153 -89 0
-153 61 0
153 84 77 -82 85 13 -65 9 -14 89 -61 0
-154 -84 0
-154 98 0
-154 40 0
-154 31 0
-154 76 0
-154 -51 0
-154 -55 0
-154 -94 0
-154 71 0
-154 -90 0
154 84 -98 -40 -31 -76 51 55 94 -71 90 0
-155 -49 0
-155 36 0
-155 94 0
-155 25 0
-155 54 0
-155 41 0
-155 -17 0
-155 37 0
-155 15 0
-155 9 0
155 49 -36 -94 -25 -54 -41 17 -37 -15 -9 0
-156 14 0
-156 68 0
-156 23 0
-156 13 0
-156 -18 0
-156 96 0
-156 75 0
-156 -90 0
-156 9 0
-156 87 0
156 -14 -68 -23 -13 18 -96 -75 90 -9 -87 0
-157 -58 0
-157 100 0
-157 78 0
-157 88 0
-157 33 0
-157 -84 0
-157 96 0
-157 -8 0
-157 60 0
-157 30 0
157 58 -100 -78 -88 -33 84 -96 8 -60 -30 0
-158 49 0
-158 6 0
-158 -70 0
-158 -15 0
-158 19 0
-158 -96 0
-158 -1 0
-158 35 0
-158 -65 0
-158 60 0
158 -49 -6 70 15 -19 96 1 -35 65 -60 0
-159 -95 0
-159 -56 0
-159 -42 0
-159 17 0
-159 -49 0
-159 57 0
-159 34 0
-159 65 0
-159 35 0
-159 -51 0
159 95 56 42 -17 49 -57 -34 -65 -35 51 0
-160 86 0
-160 93 0
-160 -42 0
-160 -47 0
-160 -68 0
-160 97 0
-160 -5 0
-160 65 0
-160 -60 0
-160 -79 0
160 -86 -93 42 47 68 -97 5 -65 60 79 0
151 152 153 154 155 156 157 158 159 160 0
-161 2 0
-161 72 0
-161 71 0
-161 -65 0
-161 95 0
-161 -62 0
-161 54 0
-161 21 0
-161 17 0
-161 29 0
161 -2 -72 -71 65 -95 62 -54 -21 -17 -29 0
-162 50 0
-162 -68 0
-162 33 0
-162 96 0
-162 -24 0
-162 51 0
-162 14 0
-162 -44 0
-162 -12 0
-162 -29 0
162 -50 68 -33 -96 24 -51 -14 44 12 29 0
-163 -6 0
-163 -38 0
-163 -97 0
-163 76 0
-163 -10 0
-163 94 0
-163 98 0
-163 -2 0
-163 49 0
-163 37 0
163 6 38 97 -76 10 -94 -98 2 -49 -37 0
-164 70 0
-164 -69 0
-164 89 0
-164 -48 0
-164 16 0
-164 1 0
-164 -96 0
-164 55 0
-164 -36 0
-164 6 0
164 -70 69 -89 48 -16 -1 96 -55 36 -6 0
-165 88 0
-165 38 0
-165 -95 0
-165 -18 0
-165 27 0
-165 -34 0
-165 -2 0
-165 79 0
-165 43 0
-165 8 0
165 -88 -38 95 18 -27 34 2 -79 -43 -8 0
-166 -31 0
-166 -82 0
-166 -75 0
-166 -8 0
-166 27 0
-166 100 0
-166 39 0
-166 99 0
-166 18 0
-166 93 0
166 31 82 75 8 -27 -100 -39 -99 -18 -93 0
-167 -83 0
-167 -86 0
-167 21 0
-167 24 0
-167 56 0
-167 8 0
-167 -78 0
-167 -36 0
-167 13 0
-167 -47 0
167 83 86 -21 -24 -56 -8 78 36 -13 47 0
-168 -10 0
-168 25 0
-168 30 0
-168 -67 0
-168 14 0
-168 11 0
-168 -12 0
-168 -69 0
-168 -86 0
-168 -76 0
168 10 -25 -30 67 -14 -11 12 69 86 76 0
-169 35 0
-169 84 0
-169 68 0
-169 -82 0
-169 -26 0
-169 -79 0
-169 -5 0
-169 -99 0
-169 15 0
-169 64 0
169 -35 -84 -68 82 26 79 5 99 -15 -64 0
-170 91 0
-170 67 0
-170 43 0
-170 -34 0
-170 13 0
-170 56 0
-170 -82 0
-170 -44 0
-170 30 0
-170 -9 0
170 -91 -67 -43 34 -13 -56 82 44 -30 9 0
161 162 163 164 165 166 167 168 169 170 0
-171 -81 0
-171 -21 0
-171 -26 0
-171 -11 0
-171 84 0
-171 38 0
-171 -15 0
-171 45 0
-171 1 0
-171 22 0
171 81 21 26 11 -84 -38 15 -45 -1 -22 0
-172 -11 0
-172 86 0
-172 56 0
-172 -52 0
-172 -65 0
-172 -89 0
-172 -29 0
-172 -34 0
-172 93 0
-172 97 0
172 11 -86 -56 52 65 89 29 34 -93 -97 0
-173 57 0
-173 3 0
-173 -73 0
-173 43 0
-173 -42 0
-173 -81 0
-173 77 0
-173 25 0
-173 -66 0
-173 58 0
173 -57 -3 73 -43 42 81 -77 -25 66 -58 0
-174 -7 0
-174 -13 0
-174 -48 0
-174 46 0
-174 99 0
-174 -71 0
-174 24 0
-174 -88 0
-174 -51 0
-174 82 0
174 7 13 48 -46 -99 71 -24 88 51 -82 0
-175 -71 0
-175 24 0
-175 -19 0
-175 67 0
-175 32 0
-175 15 0
-175 18 0
-175 -27 0
-175 92 0
-175 -42 0
175 71 -24 19 -67 -32 -15 -18 27 -92 42 0
-176 66 0
-176 -36 0
-176 22 0
-176 93 0
-176 -64 0
-176 -56 0
-176 -99 0
-176 96 0
-176 45 0
-176 -53 0
176 -66 36 -22 -93 64 56 99 -96 -45 53 0
-177 7 0
-177 69 0
-177 -90 0
-177 15 0
-177 -34 0
-177 32 0
-177 60 0
-177 -89 0
-177 -35 0
-177 29 0
177 -7 -69 90 -15 34 -32 -60 89 35 -29 0
-178 84 0
-178 100 0
-178 -12 0
-178 -54 0
-178 64 0
-178 1 0
-178 -79 0
-178 -94 0
-178 -7 0
-178 -78 0
178 -84 -100 12 54 -64 -1 79 94 7 78 0
-179 65 0
-179 50 0
-179 85 0
-179 66 0
-179 -95 0
-179 -30 0
-179 -35 0
-179 -60 0
-179 68 0
-179 12 0
179 -65 -50 -85 -66 95 30 35 60 -68 -12 0
-180 79 0
-180 15 0
-180 44 0
-180 48 0
-180 1 0
-180 -92 0
-180 -63 0
-180 94 0
-180 -75 0
-180 38 0
180 -79 -15 -44 -48 -1 92 63 -94 75 -38 0
171 172 173 174 175 176 177 178 179 180 0
-181 -9 0
-181 41 0
-181 -18 0
-181 -3 0
-181 100 0
-181 84 0
-181 63 0
-181 22 0
-181 -57 0
-181 -76 0
181 9 -41 18 3 -100 -84 -63 -22 57 76 0
-182 96 0
-182 -58 0
-182 -98 0
-182 14 0
-182 5 0
-182 -13 0
-182 -45 0
-182 66 0
-182 21 0
-182 1 0
182 -96 58 98 -14 -5 13 45 -66 -21 -1 0
-183 51 0
-183 -69 0
-183 27 0
-183 -32 0
-183 38 0
-183 18 0
-183 58 0
-183 98 0
-183 -70 0
-183 -12 0
183 -51 69 -27 32 -38 -18 -58 -98 70 12 0
-184 -25 0
-184 -42 0
-184 -99 0
-184 -62 0
-184 75 0
-184 -92 0
-184 41 0
-184 10 0
-184 7 0
-184 36 0
184 25 42 99 62 -75 92 -41 -10 -7 -36 0
-185 -44 0
-185 98 0
-185 -81 0
-185 -57 0
-185 16 0
-185 2 0
-185 -35 0
-185 54 0
-185 77 0
-185 -11 0
185 44 -98 81 57 -16 -2 35 -54 -77 11 0
-186 36 0
-186 -44 0
-186 27 0
-186 24 0
-186 -92 0
-186 -37 0
-186 -62 0
-186 17 0
-186 -33 0
-186 -22 0
186 -36 44 -27 -24 92 37 62 -17 33 22 0
-187 55 0
-187 78 0
-187 95 0
-187 -90 0
-187 -5 0
-187 -100 0
-187 48 0
-187 8 0
-187 12 0
-187 -11 0
187 -55 -78 -95 90 5 100 -48 -8 -12 11 0
-188 -93 0
-188 -92 0
-188 10 0
-188 17 0
-188 66 0
-188 -90 0
-188 16 0
-188 73 0
-188 46 0
-188 61 0
188 93 92 -10 -17 -66 90 -16 -73 -46 -61 0
-189 -88 0
-189 -76 0
-189 28 0
-189 -29 0
-189 30 0
-189 32 0
-189 10 0
-189 97 0
-189 42 0
-189 -51 0
189 88 76 -28 29 -30 -32 -10 -97 -42 51 0
-190 -89 0
-190 -57 0
-190 -35 0
-190 12 0
-190 94 0
-190 -8 0
-190 -30 0
-190 81 0
-190 -47 0
-190 98 0
190 89 57 35 -12 -94 8 30 -81 47 -98 0
181 182 183 184 185 186 187 188 189 190 0
-191 18 0
-191 46 0
-191 27 0
-191 92 0
-191 -96 0
-191 -14 0
-191 -68 0
-191 70 0
-191 16 0
-191 23 0
191 -18 -46 -27 -92 96 14 68 -70 -16 -23 0
-192 -97 0
-192 48 0
-192 87 0
-192 -5 0
-192 -60 0
-192 -19 0
-192 21 0
-192 34 0
-192 -90 0
-192 30 0
192 97 -48 -87 5 60 19 -21 -34 90 -30 0
-193 46 0
-193 84 0
-193 -37 0
-193 78 0
-193 -69 0
-193 2 0
-193 -8 0
-193 9 0
-193 4 0
-193 -19 0
193 -46 -84 37 -78 69 -2 8 -9 -4 19 0
-194 42 0
-194 19 0
-194 -66 0
-194 -20 0
-194 39 0
-194 -52 0
-194 91 0
-194 -98 0
-194 -65 0
-194 27 0
194 -42 -19 66 20 -39 52 -91 98 65 -27 0
-195 66 0
-195 -5 0
-195 8 0
-195 -96 0
-195 2 0
-195 98 0
-195 -18 0
-195 6 0
-195 12 0
-195 -34 0
195 -66 5 -8 96 -2 -98 18 -6 -12 34 0
-196 55 0
-196 13 0
-196 -74 0
-196 28 0
-196 29 0
-196 -36 0
-196 -83 0
-196 18 0
-196 -96 0
-196 -52 0
196 -55 -13 74 -28 -29 36 83 -18 96 52 0
-197 28 0
-197 -96 0
-197 27 0
-197 -79 0
-197 76 0
-197 38 0
-197 -81 0
-197 61 0
-197 -97 0
-197 -66 0
197 -28 96 -27 79 -76 -38 81 -61 97 66 0
-198 80 0
-198 90 0
-198 -32 0
-198 -84 0
-198 -53 0
-198 -2 0
-198 72 0
-198 -71 0
-198 1 0
-198 -7 0
198 -80 -90 32 84 53 2 -72 71 -1 7 0
-199 -47 0
-199 26 0
-199 57 0
-199 -73 0
-199 -74 0
-199 -64 0
-199 70 0
-199 -13 0
-199 -44 0
-199 -46 0
199 47 -26 -57 73 74 64 -70 13 44 46 0
-200 -77 0
-200 -45 0
-200 -84 0
-200 37 0
-200 -32 0
-200 -65 0
-200 -90 0
-200 -97 0
-200 -11 0
-200 -1 0
200 77 45 84 -37 32 65 90 97 11 1 0
191 192 193 194 195 196 197 198 199 200 0
